
Gurobi 9.5.0 (win64) logging started Tue Jun  7 14:16:39 2022

Set parameter LogFile to value "C:\Users\kmajd1\Documents\NNRepLayer_v2\demos\examples\tc7_walking_example\repair_inp_out_constraint\repair_net/logs/opt_log_6_7_2022_14_16_8.log"
Gurobi Optimizer version 9.5.0 build v9.5.0rc5 (win64)
Thread count: 8 physical cores, 16 logical processors, using up to 16 threads
Optimize a model with 366 rows, 134 columns and 969 nonzeros
Model fingerprint: 0x9f171270
Model has 101 quadratic objective terms
Coefficient statistics:
  Matrix range     [7e-03, 4e+01]
  Objective range  [2e-03, 4e-01]
  QObjective range [2e-02, 2e+00]
  Bounds range     [1e+01, 4e+01]
  RHS range        [1e-03, 2e+01]
Presolve removed 231 rows and 17 columns
Presolve time: 0.01s
Presolved: 135 rows, 117 columns, 723 nonzeros
Presolved model has 101 quadratic objective terms
Ordering time: 0.00s

Barrier statistics:
 Dense cols : 9
 AA' NZ     : 1.006e+03
 Factor NZ  : 1.490e+03
 Factor Ops : 2.438e+04 (less than 1 second per iteration)
 Threads    : 1

                  Objective                Residual
Iter       Primal          Dual         Primal    Dual     Compl     Time
   0   1.62509722e+07 -1.63689932e+07  3.06e+03 4.25e+02  9.08e+05     0s
   1   4.82003169e+06 -5.04656669e+06  1.58e+03 2.20e+02  4.78e+05     0s
   2   3.37747266e+04 -7.11364934e+05  1.40e+02 1.94e+01  5.82e+04     0s
   3   1.53128877e+01 -4.58256527e+05  1.76e+00 2.45e-01  2.34e+03     0s
   4   1.08819484e+01 -1.74264020e+05  3.30e-01 4.59e-02  7.25e+02     0s
   5   1.09952060e+01 -8.31578464e+03  3.89e-03 5.41e-04  3.07e+01     0s
   6   1.07152033e+01 -2.42299346e+01  9.55e-06 1.33e-06  1.28e-01     0s
   7   5.98803560e+00  2.56405273e-01  4.69e-07 6.52e-08  2.11e-02     0s
   8   5.03880138e+00  2.80135572e+00  1.64e-07 2.28e-08  8.23e-03     0s
   9   4.85925074e+00  4.08661537e+00  3.17e-08 4.41e-09  2.84e-03     0s
  10   4.78122489e+00  4.48954059e+00  6.88e-09 9.56e-10  1.07e-03     0s
  11   4.75957528e+00  4.70783201e+00  7.74e-10 1.09e-10  1.90e-04     0s
  12   4.75534278e+00  4.75463491e+00  4.66e-12 2.74e-13  2.60e-06     0s
  13   4.75526893e+00  4.75526511e+00  2.71e-11 4.35e-12  1.40e-08     0s
  14   4.75526842e+00  4.75526842e+00  1.97e-10 9.61e-12  1.41e-11     0s

Barrier solved model in 14 iterations and 0.03 seconds (0.00 work units)
Optimal objective 4.75526842e+00

